id: 1330
name: sp97ar
group: miplib2010
method: 1

Gurobi 7.0.2 (linux64, Matlab) logging started Fri Apr 20 15:54:16 2018


Gurobi 7.0.2 (linux64) logging started Fri Apr 20 15:54:16 2018

Optimize a model with 1761 rows, 14101 columns and 290968 nonzeros
Coefficient statistics:
  Matrix range     [1e+00, 2e+01]
  Objective range  [1e+06, 9e+07]
  Bounds range     [1e+00, 1e+00]
  RHS range        [1e+00, 3e+01]
Presolve removed 69 rows and 1 columns
Presolve time: 0.07s
Presolved: 1692 rows, 14100 columns, 281317 nonzeros

Iteration    Objective       Primal Inf.    Dual Inf.      Time
       0    8.1215008e+06   4.485000e+02   0.000000e+00      0s
    1653    6.5256039e+08   0.000000e+00   0.000000e+00      0s

Solved in 1653 iterations and 0.29 seconds
Optimal objective  6.525603912e+08
status: OPTIMAL
